3 24 1 10
12 1 13 2 1 7 9 12 1 3 5 11 15 17 2 2 6 17 20 14 20 3 10 11 
5.89 6.76 5.06 4.94 3.73 7.96 6.86 2.67 1.38 6.75 6.63 3.25 0.34 6.85 6.94 6.37 5.41 0.85 3.57 5.72 5.37 6.64 3.68 5.08 
4 4 4 4 4 4 4 4 4 4 4 4 4 4 4 4 4 4 4 4 4 4 4 4 
6.24 2.72 0.91 1.53 4.07 4.53 6.97 0.22 7.42 0.42 1.76 6.53 2.02 6.59 7.23 0.18 2.76 1.5 0.45 5.39 5.72 7.27 3.32 5.73 
1 1 1 1 1 1 1 1 1 1 1 1 1 1 1 1 1 1 1 1 1 1 1 1 
1 1 1 1 1 1 1 1 1 1 1 1 1 1 1 1 1 1 1 1 1 1 1 1 
1 1 1 1 1 1 1 1 1 1 1 1 1 1 1 1 1 1 1 1 1 1 1 1 
0.01 0.01 0.01 0.01 0.01 0.01 0.01 0.01 0.01 0.01 0.01 0.01 0.01 0.01 0.01 0.01 0.01 0.01 0.01 0.01 0.01 0.01 0.01 0.01 
0.02 0.02 0.02 0.02 0.02 0.02 0.02 0.02 0.02 0.02 0.02 0.02 0.02 0.02 0.02 0.02 0.02 0.02 0.02 0.02 0.02 0.02 0.02 0.02 
1 1 1 1 1 1 1 1 1 1 1 1 1 1 1 1 1 1 1 1 1 1 1 1 
